NAME : gaussian_missing_edges_with_de_nei2_nei3_random17.3517.tour
COMMENT : Length = 3517
COMMENT : Found by LKH [Keld Helsgaun] Fri Jul 12 17:07:08 2024
TYPE : TOUR
DIMENSION : 17
TOUR_SECTION
1
2
6
15
12
13
5
10
16
17
9
14
4
7
3
11
8
-1
EOF
